presolving:
(round 1, fast)       4576 del vars, 3077 del conss, 0 add conss, 1524 chg bounds, 2 chg sides, 4 chg coeffs, 0 upgd conss, 0 impls, 0 clqs
   (0.1s) running MILP presolver
   (0.1s) MILP presolver found nothing
(round 2, exhaustive) 4576 del vars, 3077 del conss, 0 add conss, 1524 chg bounds, 2 chg sides, 4 chg coeffs, 1520 upgd conss, 0 impls, 0 clqs
   (0.1s) probing: 51/1633 (3.1%) - 0 fixings, 0 aggregations, 0 implications, 0 bound changes
   (0.1s) probing aborted: 50/50 successive totally useless probings
   (0.1s) symmetry computation started: requiring (bin +, int -, cont +), (fixed: bin -, int +, cont -)
   (0.1s) no symmetry present
presolving (3 rounds: 3 fast, 2 medium, 2 exhaustive):
 4576 deleted vars, 3077 deleted constraints, 0 added constraints, 1524 tightened bounds, 0 added holes, 2 changed sides, 4 changed coefficients
 0 implications, 0 cliques
presolved problem has 1633 variables (1633 bin, 0 int, 0 impl, 0 cont) and 1520 constraints
   1520 constraints of type <logicor>
Presolving Time: 0.07

 time | node  | left  |LP iter|LP it/n|mem/heur|mdpt |vars |cons |rows |cuts |sepa|confs|strbr|  dualbound   | primalbound  |  gap   | compl. 
t 0.1s|     1 |     0 |     0 |     - | trivial|   0 |1633 |1520 |   0 |   0 |  0 |   0 |   0 | 3.829283e+05 | 3.814063e+05 |   0.40%| unknown
t 0.1s|     1 |     0 |     0 |     - | trivial|   0 |1633 |1520 |   0 |   0 |  0 |   0 |   0 | 3.829283e+05 | 3.814073e+05 |   0.40%| unknown
p 0.1s|     1 |     0 |     0 |     - |   locks|   0 |1633 |1520 |1520 |   0 |  0 |   0 |   0 | 3.829283e+05 | 3.826853e+05 |   0.06%| unknown
  0.1s|     1 |     0 |   116 |     - |    30M |   0 |1633 |1520 |1520 |   0 |  0 |   0 |   0 | 3.829263e+05 | 3.826853e+05 |   0.06%| unknown
  0.1s|     1 |     0 |   207 |     - |    32M |   0 |1633 |1520 |1531 |  11 |  1 |   0 |   0 | 3.829208e+05 | 3.826853e+05 |   0.06%| unknown
  0.2s|     1 |     0 |   272 |     - |    32M |   0 |1633 |1520 |1544 |  24 |  2 |   0 |   0 | 3.829168e+05 | 3.826853e+05 |   0.06%| unknown
  0.2s|     1 |     0 |   374 |     - |    32M |   0 |1633 |1520 |1557 |  37 |  3 |   0 |   0 | 3.829118e+05 | 3.826853e+05 |   0.06%| unknown
  0.3s|     1 |     0 |   442 |     - |    32M |   0 |1633 |1520 |1568 |  48 |  4 |   0 |   0 | 3.829083e+05 | 3.826853e+05 |   0.06%| unknown
  0.3s|     1 |     0 |   504 |     - |    33M |   0 |1633 |1520 |1578 |  58 |  5 |   0 |   0 | 3.829058e+05 | 3.826853e+05 |   0.06%| unknown
  0.3s|     1 |     0 |   542 |     - |    33M |   0 |1633 |1520 |1584 |  64 |  6 |   0 |   0 | 3.829028e+05 | 3.826853e+05 |   0.06%| unknown
  0.4s|     1 |     0 |   637 |     - |    33M |   0 |1633 |1520 |1600 |  80 |  7 |   0 |   0 | 3.828978e+05 | 3.826853e+05 |   0.06%| unknown
  0.4s|     1 |     0 |   773 |     - |    33M |   0 |1633 |1520 |1614 |  94 |  8 |   0 |   0 | 3.828946e+05 | 3.826853e+05 |   0.05%| unknown
  0.4s|     1 |     0 |   822 |     - |    33M |   0 |1633 |1520 |1623 | 103 |  9 |   0 |   0 | 3.828923e+05 | 3.826853e+05 |   0.05%| unknown
  0.5s|     1 |     0 |   922 |     - |    33M |   0 |1633 |1520 |1634 | 114 | 10 |   0 |   0 | 3.828891e+05 | 3.826853e+05 |   0.05%| unknown
  0.5s|     1 |     0 |   986 |     - |    34M |   0 |1633 |1520 |1643 | 123 | 11 |   0 |   0 | 3.828876e+05 | 3.826853e+05 |   0.05%| unknown
 time | node  | left  |LP iter|LP it/n|mem/heur|mdpt |vars |cons |rows |cuts |sepa|confs|strbr|  dualbound   | primalbound  |  gap   | compl. 
  0.6s|     1 |     0 |  1048 |     - |    34M |   0 |1633 |1520 |1650 | 130 | 12 |   0 |   0 | 3.828858e+05 | 3.826853e+05 |   0.05%| unknown
  0.6s|     1 |     0 |  1094 |     - |    34M |   0 |1633 |1520 |1660 | 140 | 13 |   0 |   0 | 3.828842e+05 | 3.826853e+05 |   0.05%| unknown
  0.6s|     1 |     0 |  1113 |     - |    34M |   0 |1633 |1520 |1662 | 142 | 14 |   0 |   0 | 3.828837e+05 | 3.826853e+05 |   0.05%| unknown
  0.6s|     1 |     0 |  1179 |     - |    34M |   0 |1633 |1520 |1673 | 153 | 15 |   0 |   0 | 3.828817e+05 | 3.826853e+05 |   0.05%| unknown
  0.7s|     1 |     0 |  1219 |     - |    35M |   0 |1633 |1520 |1683 | 163 | 16 |   0 |   0 | 3.828797e+05 | 3.826853e+05 |   0.05%| unknown
  0.7s|     1 |     0 |  1299 |     - |    35M |   0 |1633 |1520 |1689 | 173 | 17 |   0 |   0 | 3.828775e+05 | 3.826853e+05 |   0.05%| unknown
  0.7s|     1 |     0 |  1422 |     - |    35M |   0 |1633 |1520 |1697 | 181 | 18 |   0 |   0 | 3.828758e+05 | 3.826853e+05 |   0.05%| unknown
  0.8s|     1 |     0 |  1484 |     - |    35M |   0 |1633 |1520 |1704 | 188 | 19 |   0 |   0 | 3.828744e+05 | 3.826853e+05 |   0.05%| unknown
  0.8s|     1 |     0 |  1562 |     - |    35M |   0 |1633 |1520 |1712 | 196 | 20 |   0 |   0 | 3.828731e+05 | 3.826853e+05 |   0.05%| unknown
  0.8s|     1 |     0 |  1569 |     - |    35M |   0 |1633 |1520 |1713 | 197 | 21 |   0 |   0 | 3.828731e+05 | 3.826853e+05 |   0.05%| unknown
  2.8s|     1 |     2 |  4893 |     - |    36M |   0 |1633 |1520 |1713 | 197 | 23 |   0 |  26 | 3.828616e+05 | 3.826853e+05 |   0.05%| unknown
r 4.9s|     7 |     6 |  6651 | 847.0 |rounding|   6 |1633 |1520 |1644 | 197 |  0 |   0 | 120 | 3.828616e+05 | 3.826863e+05 |   0.05%| unknown
* 4.9s|     7 |     6 |  6651 | 847.0 |strongbr|   6 |1633 |1520 |1644 | 197 |  1 |   0 | 120 | 3.828616e+05 | 3.828003e+05 |   0.02%| unknown
 16.6s|   100 |    27 | 22530 | 211.7 |    38M |  12 |1633 |1571 |1664 | 321 |  1 |  51 |1277 | 3.828426e+05 | 3.828003e+05 |   0.01%|  22.17%
 23.0s|   200 |    25 | 39107 | 188.6 |    39M |  12 |1633 |1599 |1668 | 321 |  1 |  79 |2074 | 3.828348e+05 | 3.828003e+05 |   0.01%|  43.85%
 time | node  | left  |LP iter|LP it/n|mem/heur|mdpt |vars |cons |rows |cuts |sepa|confs|strbr|  dualbound   | primalbound  |  gap   | compl. 
 25.7s|   300 |    13 | 51648 | 167.5 |    39M |  12 |1633 |1601 |1667 | 321 |  0 |  81 |2216 | 3.828263e+05 | 3.828003e+05 |   0.01%|  65.88%

SCIP Status        : problem is solved [optimal solution found]
Solving Time (sec) : 27.14
Solving Nodes      : 361
Primal Bound       : +3.82800349667914e+05 (12 solutions)
Dual Bound         : +3.82800349667914e+05
Gap                : 0.00 %
Solve Status: optimal
Solve Time: 27.14 seconds
